c defined variables: 33 34 35 36 37 38 39 40 41 42 43 44 45 46 47 48 49 50 51 52 53 54 55 56 57 58 59 60 61 62 63 64 65 66 67 68 69 70 71 72 73 74 75 76 77 78 79 80 81 82 83 84 85 86 87 88 89 90 91 92 93 94 95 96 97 98 99 100 101 102 103 104 105 106 107 108 109 110 111 112 113 114 115 116 117 118 119 120 121 122 123 124 125 126 127 128 129 130 131 132 133 134 135 136 137 138 139 140 141 142 143 144 145 146 147 148 149 150 151 152 153 154 155 156 157 158 159 160 161 162 163 164 165 166 167 208 211 212 213 214 215 216 217 218 219 220 221 222 223 224 225 226 227 228 229 230 231 232 233 234 235 236 237 238 239 240 241 242 244 245 246 247 249 251 254 255 256 257 258 259 260 261 262 263 264 265 266 267 268 269 270 271 272 273 275 276 277 278 279 280 281 282 283 284 285 286 287 288 289 290 291 292 293 294 295 296 297 298 299 300 301 302 303 304 305 306 307 308 309 310 311 312 314 315 316 317 318 319 320 321 322 323 324 325 326 327 328 329 330 331 332 333 334 335 336 337 339 340 341 342 343 344 345 
p cnf 1526 2332
a 1 2 3 4 5 6 7 8 9 10 11 12 13 14 15 16 17 18 19 20 21 22 23 24 25 26 27 28 29 30 31 32 178 179 180 181 182 183 184 185 186 187 188 189 190 191 192 193 194 195 196 197 198 199 200 201 202 203 204 205 0
e 33 34 35 36 37 38 39 40 41 42 43 44 45 46 47 48 49 50 51 52 53 54 55 56 57 58 59 60 61 62 63 64 65 66 67 68 69 70 71 72 73 74 75 76 77 78 79 80 81 82 83 84 85 86 87 88 89 90 91 92 93 94 95 96 97 98 99 100 101 102 103 104 105 106 107 108 109 110 111 112 113 114 115 116 117 118 119 120 121 122 123 124 125 126 127 128 129 130 131 132 133 134 135 136 137 138 139 140 141 142 143 144 145 146 147 148 149 150 151 152 153 154 155 156 157 158 159 160 161 162 163 164 165 166 167 208 211 212 213 214 215 216 217 218 219 220 221 222 223 224 225 226 227 228 229 230 231 232 233 234 235 236 237 238 239 240 241 242 244 245 246 247 249 251 254 255 256 257 258 259 260 261 262 263 264 265 266 267 268 269 270 271 272 273 275 276 277 278 279 280 281 282 283 284 285 286 287 288 289 290 291 292 293 294 295 296 297 298 299 300 301 302 303 304 305 306 307 308 309 310 311 312 314 315 316 317 318 319 320 321 322 323 324 325 326 327 328 329 330 331 332 333 334 335 336 337 339 340 341 342 343 344 345 1214 1215 1216 1217 1218 1219 1220 1221 1222 1223 1224 1225 1226 1227 1228 1229 1230 1231 1232 1233 1234 1235 1236 1237 1238 1239 1240 1241 1242 1243 1244 1245 1246 1247 1248 1249 1250 1251 1252 1253 1254 1255 1256 1257 1258 1259 1260 1261 1262 1263 1264 1265 1266 1267 1268 1269 1270 1271 1272 1273 1274 1275 1276 1277 1278 1279 1280 1281 1282 1283 1284 1285 1286 1287 1288 1289 1290 1291 1292 1293 1294 1295 1296 1297 1298 1299 1300 1301 1302 1303 1304 1305 1306 1307 1308 1309 1310 1311 1312 1313 1314 1315 1316 1317 1318 1319 1320 1321 1322 1323 1324 1325 1326 1327 1328 1329 1330 1331 1332 1333 1334 1335 1336 1337 1338 1339 1340 1341 1342 1343 1344 1345 1346 1347 1348 1349 1350 1351 1352 1353 1354 1355 1356 1357 1358 1359 1360 1361 1362 1363 1364 1365 1366 1367 1368 1369 1370 1371 1372 1373 1374 1375 1376 1377 1378 1379 1380 1381 1382 1383 1384 1385 1386 1387 1388 1389 1390 1391 1392 1393 1394 1395 1396 1397 1398 1399 1400 1401 1402 1403 1404 1405 1406 1407 1408 1409 1410 1411 1412 1413 1414 1415 1416 1417 1418 1419 1420 1421 1422 1423 1424 1425 1426 1427 1428 1429 1430 1431 1432 1433 1434 1435 1436 1437 1438 1439 1440 1441 1442 1443 1444 1445 1446 1447 1448 1449 1450 1451 1452 1453 1454 1455 1456 1457 1458 1459 1460 1461 1462 1463 1464 1465 1466 1467 1468 1469 1470 1471 1472 1473 1474 1475 1476 1477 1478 1479 1480 1481 1482 1483 1484 1485 1486 1487 1488 1489 1490 1491 1492 1493 1494 1495 1496 1497 1498 1499 1500 1501 1502 1503 1504 1505 1506 1507 1508 1509 1510 1511 1512 1513 1514 1515 1516 1517 1518 1519 1520 1521 1522 1523 1524 1525 1526 0
d 168 190 191 192 193 194 195 196 197 0
d 169 190 191 192 193 194 195 196 197 0
d 170 180 181 0
d 171 182 183 184 185 186 187 188 189 0
d 172 182 183 184 185 186 187 188 189 0
d 173 182 183 184 185 186 187 188 189 0
d 174 178 179 0
d 175 198 199 200 201 202 203 204 205 0
d 176 198 199 200 201 202 203 204 205 0
d 177 198 199 200 201 202 203 204 205 0
d 206 1 2 3 4 5 6 7 8 9 10 11 12 13 14 15 16 17 18 19 20 21 22 23 24 25 26 27 28 29 30 31 32 178 179 180 181 182 183 184 185 186 187 188 189 190 191 192 193 194 195 196 197 198 199 200 201 202 203 204 205 0
d 207 1 2 3 4 5 6 7 8 9 10 11 12 13 14 15 16 17 18 19 20 21 22 23 24 25 26 27 28 29 30 31 32 178 179 180 181 182 183 184 185 186 187 188 189 190 191 192 193 194 195 196 197 198 199 200 201 202 203 204 205 0
d 209 1 2 3 4 5 6 7 8 9 10 11 12 13 14 15 16 17 18 19 20 21 22 23 24 25 26 27 28 29 30 31 32 178 179 180 181 182 183 184 185 186 187 188 189 190 191 192 193 194 195 196 197 198 199 200 201 202 203 204 205 0
d 210 1 2 3 4 5 6 7 8 9 10 11 12 13 14 15 16 17 18 19 20 21 22 23 24 25 26 27 28 29 30 31 32 178 179 180 181 182 183 184 185 186 187 188 189 190 191 192 193 194 195 196 197 198 199 200 201 202 203 204 205 0
d 243 1 2 3 4 5 6 7 8 9 10 11 12 13 14 15 16 17 18 19 20 21 22 23 24 25 26 27 28 29 30 31 32 178 179 180 181 182 183 184 185 186 187 188 189 190 191 192 193 194 195 196 197 198 199 200 201 202 203 204 205 0
d 248 1 2 3 4 5 6 7 8 9 10 11 12 13 14 15 16 17 18 19 20 21 22 23 24 25 26 27 28 29 30 31 32 178 179 180 181 182 183 184 185 186 187 188 189 190 191 192 193 194 195 196 197 198 199 200 201 202 203 204 205 0
d 250 1 2 3 4 5 6 7 8 9 10 11 12 13 14 15 16 17 18 19 20 21 22 23 24 25 26 27 28 29 30 31 32 178 179 180 181 182 183 184 185 186 187 188 189 190 191 192 193 194 195 196 197 198 199 200 201 202 203 204 205 0
d 252 1 2 3 4 5 6 7 8 9 10 11 12 13 14 15 16 17 18 19 20 21 22 23 24 25 26 27 28 29 30 31 32 178 179 180 181 182 183 184 185 186 187 188 189 190 191 192 193 194 195 196 197 198 199 200 201 202 203 204 205 0
d 253 1 2 3 4 5 6 7 8 9 10 11 12 13 14 15 16 17 18 19 20 21 22 23 24 25 26 27 28 29 30 31 32 178 179 180 181 182 183 184 185 186 187 188 189 190 191 192 193 194 195 196 197 198 199 200 201 202 203 204 205 0
d 274 1 2 3 4 5 6 7 8 9 10 11 12 13 14 15 16 17 18 19 20 21 22 23 24 25 26 27 28 29 30 31 32 178 179 180 181 182 183 184 185 186 187 188 189 190 191 192 193 194 195 196 197 198 199 200 201 202 203 204 205 0
d 313 1 2 3 4 5 6 7 8 9 10 11 12 13 14 15 16 17 18 19 20 21 22 23 24 25 26 27 28 29 30 31 32 178 179 180 181 182 183 184 185 186 187 188 189 190 191 192 193 194 195 196 197 198 199 200 201 202 203 204 205 0
d 338 1 2 3 4 5 6 7 8 9 10 11 12 13 14 15 16 17 18 19 20 21 22 23 24 25 26 27 28 29 30 31 32 178 179 180 181 182 183 184 185 186 187 188 189 190 191 192 193 194 195 196 197 198 199 200 201 202 203 204 205 0
1214 -33 0
-1214 33 0
1215 -34 0
-1215 34 0
-1216 -35 0
1216 35 0
1217 -36 0
-1217 36 0
1218 -37 0
-1218 37 0
-1219 -38 0
1219 38 0
1220 -39 0
-1220 39 0
1221 -40 0
-1221 40 0
-1222 -41 0
1222 41 0
-12 -42 0
12 42 0
-1223 -43 0
1223 43 0
-11 -44 0
11 44 0
-1224 -45 0
1224 45 0
-10 -46 0
10 46 0
-1225 -47 0
1225 47 0
-9 -48 0
9 48 0
-1226 -49 0
1226 49 0
-49 -50 0
49 50 0
1227 -51 0
-1227 51 0
1229 -52 0
-1229 52 0
1231 -53 0
-1231 53 0
-1234 -54 0
1234 54 0
1235 -55 0
-1235 55 0
1236 -56 0
-1236 56 0
-1237 -57 0
1237 57 0
1238 -58 0
-1238 58 0
1239 -59 0
-1239 59 0
1240 -60 0
-1240 60 0
1241 -61 0
-1241 61 0
-1242 -62 0
1242 62 0
1243 -63 0
-1243 63 0
1244 -64 0
-1244 64 0
-1245 -65 0
1245 65 0
1246 -66 0
-1246 66 0
1247 -67 0
-1247 67 0
-1248 -68 0
1248 68 0
1249 -69 0
-1249 69 0
1250 -70 0
-1250 70 0
-1251 -71 0
1251 71 0
-8 -72 0
8 72 0
-1252 -73 0
1252 73 0
-7 -74 0
7 74 0
-1253 -75 0
1253 75 0
-6 -76 0
6 76 0
-1254 -77 0
1254 77 0
-5 -78 0
5 78 0
-1255 -79 0
1255 79 0
-79 -80 0
79 80 0
1256 -81 0
-1256 81 0
1258 -82 0
-1258 82 0
1260 -83 0
-1260 83 0
-1263 -84 0
1263 84 0
1264 -85 0
-1264 85 0
1265 -86 0
-1265 86 0
-1266 -87 0
1266 87 0
1267 -88 0
-1267 88 0
1268 -89 0
-1268 89 0
1269 -90 0
-1269 90 0
1270 -91 0
-1270 91 0
-1271 -92 0
1271 92 0
1272 -93 0
-1272 93 0
1273 -94 0
-1273 94 0
-1274 -95 0
1274 95 0
1275 -96 0
-1275 96 0
1276 -97 0
-1276 97 0
-1277 -98 0
1277 98 0
1278 -99 0
-1278 99 0
1279 -100 0
-1279 100 0
-1280 -101 0
1280 101 0
-4 -102 0
4 102 0
-1281 -103 0
1281 103 0
-3 -104 0
3 104 0
-1282 -105 0
1282 105 0
-2 -106 0
2 106 0
-1283 -107 0
1283 107 0
-1 -108 0
1 108 0
-1284 -109 0
1284 109 0
-109 -110 0
109 110 0
1285 -111 0
-1285 111 0
1287 -112 0
-1287 112 0
1289 -113 0
-1289 113 0
-1292 -114 0
1292 114 0
1293 -115 0
-1293 115 0
1294 -116 0
-1294 116 0
-1295 -117 0
1295 117 0
1296 -118 0
-1296 118 0
1297 -119 0
-1297 119 0
1298 -120 0
-1298 120 0
1299 -121 0
-1299 121 0
-1300 -122 0
1300 122 0
1301 -123 0
-1301 123 0
1302 -124 0
-1302 124 0
-1303 -125 0
1303 125 0
1304 -126 0
-1304 126 0
1305 -127 0
-1305 127 0
-1306 -128 0
1306 128 0
1307 -129 0
-1307 129 0
1308 -130 0
-1308 130 0
-1309 -131 0
1309 131 0
-16 -132 0
16 132 0
-1310 -133 0
1310 133 0
-15 -134 0
15 134 0
-1311 -135 0
1311 135 0
-14 -136 0
14 136 0
-1312 -137 0
1312 137 0
-13 -138 0
13 138 0
-1313 -139 0
1313 139 0
-139 -140 0
139 140 0
1314 -141 0
-1314 141 0
1316 -142 0
-1316 142 0
1318 -143 0
-1318 143 0
-1321 -144 0
1321 144 0
1322 -145 0
-1322 145 0
1323 -146 0
-1323 146 0
-1324 -147 0
1324 147 0
1325 -148 0
-1325 148 0
1326 -149 0
-1326 149 0
-144 -150 0
144 150 0
-1327 -151 0
1327 151 0
-54 -152 0
54 152 0
-1328 -153 0
1328 153 0
-84 -154 0
84 154 0
-1329 -155 0
1329 155 0
-114 -156 0
114 156 0
-1330 -157 0
1330 157 0
-157 -158 0
157 158 0
1331 -159 0
-1331 159 0
1333 -160 0
-1333 160 0
1335 -161 0
-1335 161 0
-1338 -162 0
1338 162 0
1339 -163 0
-1339 163 0
1340 -164 0
-1340 164 0
-1341 -165 0
1341 165 0
1342 -166 0
-1342 166 0
1343 -167 0
-1343 167 0
-1344 -208 0
1344 208 0
-1345 -211 0
1345 211 0
1272 -212 0
-1272 212 0
1273 -213 0
-1273 213 0
-1346 -214 0
1346 214 0
1275 -215 0
-1275 215 0
1276 -216 0
-1276 216 0
-1347 -217 0
1347 217 0
1278 -218 0
-1278 218 0
-218 -219 0
218 219 0
1279 -220 0
-1279 220 0
-1348 -221 0
1348 221 0
-4 -222 0
4 222 0
-1349 -223 0
1349 223 0
-3 -224 0
3 224 0
-1350 -225 0
1350 225 0
-2 -226 0
2 226 0
-1351 -227 0
1351 227 0
-1 -228 0
1 228 0
-1352 -229 0
1352 229 0
-229 -230 0
229 230 0
1353 -231 0
-1353 231 0
1355 -232 0
-1355 232 0
1357 -233 0
-1357 233 0
-1360 -234 0
1360 234 0
1293 -235 0
-1293 235 0
1294 -236 0
-1294 236 0
-1361 -237 0
1361 237 0
1362 -238 0
-1362 238 0
1363 -239 0
-1363 239 0
1364 -240 0
-1364 240 0
1365 -241 0
-1365 241 0
-1366 -242 0
1366 242 0
-1367 -244 0
1367 244 0
-234 -245 0
234 245 0
-1368 -246 0
1368 246 0
-246 -247 0
246 247 0
1370 -249 0
-1370 249 0
-1373 -251 0
1373 251 0
-1374 -254 0
1374 254 0
1376 -255 0
-1376 255 0
1377 -256 0
-1377 256 0
1243 -257 0
-1243 257 0
1244 -258 0
-1244 258 0
-1378 -259 0
1378 259 0
1246 -260 0
-1246 260 0
1247 -261 0
-1247 261 0
-1379 -262 0
1379 262 0
1249 -263 0
-1249 263 0
1250 -264 0
-1250 264 0
-1380 -265 0
1380 265 0
-8 -266 0
8 266 0
-1381 -267 0
1381 267 0
-7 -268 0
7 268 0
-1382 -269 0
1382 269 0
-6 -270 0
6 270 0
-1383 -271 0
1383 271 0
-5 -272 0
5 272 0
-1384 -273 0
1384 273 0
1214 -275 0
-1214 275 0
1215 -276 0
-1215 276 0
-1385 -277 0
1385 277 0
1217 -278 0
-1217 278 0
1218 -279 0
-1218 279 0
-1386 -280 0
1386 280 0
1220 -281 0
-1220 281 0
1221 -282 0
-1221 282 0
-1387 -283 0
1387 283 0
-12 -284 0
12 284 0
-1388 -285 0
1388 285 0
-11 -286 0
11 286 0
-1389 -287 0
1389 287 0
-10 -288 0
10 288 0
-1390 -289 0
1390 289 0
-9 -290 0
9 290 0
-1391 -291 0
1391 291 0
1235 -292 0
-1235 292 0
1236 -293 0
-1236 293 0
-1392 -294 0
1392 294 0
1395 -295 0
-1395 295 0
1304 -296 0
-1304 296 0
1305 -297 0
-1305 297 0
-1396 -298 0
1396 298 0
1307 -299 0
-1307 299 0
1308 -300 0
-1308 300 0
-1397 -301 0
1397 301 0
-16 -302 0
16 302 0
-1398 -303 0
1398 303 0
-15 -304 0
15 304 0
-1399 -305 0
1399 305 0
-14 -306 0
14 306 0
-1400 -307 0
1400 307 0
-13 -308 0
13 308 0
-1401 -309 0
1401 309 0
1322 -310 0
-1322 310 0
1323 -311 0
-1323 311 0
-1402 -312 0
1402 312 0
1405 -314 0
-1405 314 0
1408 -315 0
-1408 315 0
1411 -316 0
-1411 316 0
1413 -317 0
-1413 317 0
1416 -318 0
-1416 318 0
1419 -319 0
-1419 319 0
1422 -320 0
-1422 320 0
1425 -321 0
-1425 321 0
1433 -322 0
-1433 322 0
1441 -323 0
-1441 323 0
1449 -324 0
-1449 324 0
1452 -325 0
-1452 325 0
-1455 -326 0
1455 326 0
-1458 -327 0
1458 327 0
-1461 -328 0
1461 328 0
1464 -329 0
-1464 329 0
1472 -330 0
-1472 330 0
1480 -331 0
-1480 331 0
1483 -332 0
-1483 332 0
1486 -333 0
-1486 333 0
-1490 -334 0
1490 334 0
-1493 -335 0
1493 335 0
-1496 -336 0
1496 336 0
1499 -337 0
-1499 337 0
1502 -339 0
-1502 339 0
1505 -340 0
-1505 340 0
1510 -341 0
-1510 341 0
1513 -342 0
-1513 342 0
1518 -343 0
-1518 343 0
1523 -344 0
-1523 344 0
1526 -345 0
-1526 345 0
-33 -11 0
-33 27 0
11 -27 33 0
-34 11 0
-34 -27 0
-11 27 34 0
-33 35 0
-34 35 0
-35 33 34 0
-36 -10 0
-36 26 0
10 -26 36 0
-37 10 0
-37 -26 0
-10 26 37 0
-36 38 0
-37 38 0
-38 36 37 0
-39 -9 0
-39 25 0
9 -25 39 0
-40 9 0
-40 -25 0
-9 25 40 0
-39 41 0
-40 41 0
-41 39 40 0
-12 -42 0
12 42 0
-42 43 0
-28 43 0
-43 42 28 0
-11 -44 0
11 44 0
-44 45 0
-27 45 0
-45 44 27 0
-10 -46 0
10 46 0
-46 47 0
-26 47 0
-47 46 26 0
-9 -48 0
9 48 0
-48 49 0
-25 49 0
-49 48 25 0
-49 -50 0
49 50 0
-51 -41 0
-51 -47 0
41 47 51 0
-52 -38 0
-52 -41 0
-52 -45 0
38 41 45 52 0
-53 -35 0
-53 -38 0
-53 -41 0
-53 -43 0
35 38 41 43 53 0
-50 54 0
-51 54 0
-52 54 0
-53 54 0
-54 50 51 52 53 0
-55 -12 0
-55 28 0
12 -28 55 0
-56 12 0
-56 -28 0
-12 28 56 0
-55 57 0
-56 57 0
-57 55 56 0
-58 -57 0
-58 -35 0
-58 -38 0
-58 -41 0
57 35 38 41 58 0
-59 -54 0
-59 -58 0
54 58 59 0
-60 -54 0
-60 59 0
54 -59 60 0
-61 54 0
-61 -59 0
-54 59 61 0
-60 62 0
-61 62 0
-62 60 61 0
-63 -7 0
-63 23 0
7 -23 63 0
-64 7 0
-64 -23 0
-7 23 64 0
-63 65 0
-64 65 0
-65 63 64 0
-66 -6 0
-66 22 0
6 -22 66 0
-67 6 0
-67 -22 0
-6 22 67 0
-66 68 0
-67 68 0
-68 66 67 0
-69 -5 0
-69 21 0
5 -21 69 0
-70 5 0
-70 -21 0
-5 21 70 0
-69 71 0
-70 71 0
-71 69 70 0
-8 -72 0
8 72 0
-72 73 0
-24 73 0
-73 72 24 0
-7 -74 0
7 74 0
-74 75 0
-23 75 0
-75 74 23 0
-6 -76 0
6 76 0
-76 77 0
-22 77 0
-77 76 22 0
-5 -78 0
5 78 0
-78 79 0
-21 79 0
-79 78 21 0
-79 -80 0
79 80 0
-81 -71 0
-81 -77 0
71 77 81 0
-82 -68 0
-82 -71 0
-82 -75 0
68 71 75 82 0
-83 -65 0
-83 -68 0
-83 -71 0
-83 -73 0
65 68 71 73 83 0
-80 84 0
-81 84 0
-82 84 0
-83 84 0
-84 80 81 82 83 0
-85 -8 0
-85 24 0
8 -24 85 0
-86 8 0
-86 -24 0
-8 24 86 0
-85 87 0
-86 87 0
-87 85 86 0
-88 -87 0
-88 -65 0
-88 -68 0
-88 -71 0
87 65 68 71 88 0
-89 -84 0
-89 -88 0
84 88 89 0
-90 -84 0
-90 89 0
84 -89 90 0
-91 84 0
-91 -89 0
-84 89 91 0
-90 92 0
-91 92 0
-92 90 91 0
-93 -3 0
-93 19 0
3 -19 93 0
-94 3 0
-94 -19 0
-3 19 94 0
-93 95 0
-94 95 0
-95 93 94 0
-96 -2 0
-96 18 0
2 -18 96 0
-97 2 0
-97 -18 0
-2 18 97 0
-96 98 0
-97 98 0
-98 96 97 0
-99 -1 0
-99 17 0
1 -17 99 0
-100 1 0
-100 -17 0
-1 17 100 0
-99 101 0
-100 101 0
-101 99 100 0
-4 -102 0
4 102 0
-102 103 0
-20 103 0
-103 102 20 0
-3 -104 0
3 104 0
-104 105 0
-19 105 0
-105 104 19 0
-2 -106 0
2 106 0
-106 107 0
-18 107 0
-107 106 18 0
-1 -108 0
1 108 0
-108 109 0
-17 109 0
-109 108 17 0
-109 -110 0
109 110 0
-111 -101 0
-111 -107 0
101 107 111 0
-112 -98 0
-112 -101 0
-112 -105 0
98 101 105 112 0
-113 -95 0
-113 -98 0
-113 -101 0
-113 -103 0
95 98 101 103 113 0
-110 114 0
-111 114 0
-112 114 0
-113 114 0
-114 110 111 112 113 0
-115 -4 0
-115 20 0
4 -20 115 0
-116 4 0
-116 -20 0
-4 20 116 0
-115 117 0
-116 117 0
-117 115 116 0
-118 -117 0
-118 -95 0
-118 -98 0
-118 -101 0
117 95 98 101 118 0
-119 -114 0
-119 -118 0
114 118 119 0
-120 -114 0
-120 119 0
114 -119 120 0
-121 114 0
-121 -119 0
-114 119 121 0
-120 122 0
-121 122 0
-122 120 121 0
-123 -15 0
-123 31 0
15 -31 123 0
-124 15 0
-124 -31 0
-15 31 124 0
-123 125 0
-124 125 0
-125 123 124 0
-126 -14 0
-126 30 0
14 -30 126 0
-127 14 0
-127 -30 0
-14 30 127 0
-126 128 0
-127 128 0
-128 126 127 0
-129 -13 0
-129 29 0
13 -29 129 0
-130 13 0
-130 -29 0
-13 29 130 0
-129 131 0
-130 131 0
-131 129 130 0
-16 -132 0
16 132 0
-132 133 0
-32 133 0
-133 132 32 0
-15 -134 0
15 134 0
-134 135 0
-31 135 0
-135 134 31 0
-14 -136 0
14 136 0
-136 137 0
-30 137 0
-137 136 30 0
-13 -138 0
13 138 0
-138 139 0
-29 139 0
-139 138 29 0
-139 -140 0
139 140 0
-141 -131 0
-141 -137 0
131 137 141 0
-142 -128 0
-142 -131 0
-142 -135 0
128 131 135 142 0
-143 -125 0
-143 -128 0
-143 -131 0
-143 -133 0
125 128 131 133 143 0
-140 144 0
-141 144 0
-142 144 0
-143 144 0
-144 140 141 142 143 0
-145 -16 0
-145 32 0
16 -32 145 0
-146 16 0
-146 -32 0
-16 32 146 0
-145 147 0
-146 147 0
-147 145 146 0
-148 -147 0
-148 -125 0
-148 -128 0
-148 -131 0
147 125 128 131 148 0
-149 -144 0
-149 -148 0
144 148 149 0
-144 -150 0
144 150 0
-150 151 0
-149 151 0
-151 150 149 0
-54 -152 0
54 152 0
-152 153 0
-59 153 0
-153 152 59 0
-84 -154 0
84 154 0
-154 155 0
-89 155 0
-155 154 89 0
-114 -156 0
114 156 0
-156 157 0
-119 157 0
-157 156 119 0
-157 -158 0
157 158 0
-159 -122 0
-159 -155 0
122 155 159 0
-160 -92 0
-160 -122 0
-160 -153 0
92 122 153 160 0
-161 -62 0
-161 -92 0
-161 -122 0
-161 -151 0
62 92 122 151 161 0
-158 162 0
-159 162 0
-160 162 0
-161 162 0
-162 158 159 160 161 0
-163 -144 0
-163 149 0
144 -149 163 0
-164 144 0
-164 -149 0
-144 149 164 0
-163 165 0
-164 165 0
-165 163 164 0
-166 -165 0
-166 -62 0
-166 -92 0
-166 -122 0
165 62 92 122 166 0
-167 -162 0
-167 -166 0
162 166 167 0
-206 -169 0
-206 168 0
169 -168 206 0
-207 169 0
-207 -168 0
-169 168 207 0
-206 208 0
-207 208 0
-208 206 207 0
-209 -172 0
-209 173 0
172 -173 209 0
-210 172 0
-210 -173 0
-172 173 210 0
-209 211 0
-210 211 0
-211 209 210 0
-212 -3 0
-212 19 0
3 -19 212 0
-213 3 0
-213 -19 0
-3 19 213 0
-212 214 0
-213 214 0
-214 212 213 0
-215 -2 0
-215 18 0
2 -18 215 0
-216 2 0
-216 -18 0
-2 18 216 0
-215 217 0
-216 217 0
-217 215 216 0
-218 -1 0
-218 17 0
1 -17 218 0
-218 -219 0
218 219 0
-220 1 0
-220 -17 0
-1 17 220 0
-219 221 0
-220 221 0
-221 219 220 0
-4 -222 0
4 222 0
-222 223 0
-20 223 0
-223 222 20 0
-3 -224 0
3 224 0
-224 225 0
-19 225 0
-225 224 19 0
-2 -226 0
2 226 0
-226 227 0
-18 227 0
-227 226 18 0
-1 -228 0
1 228 0
-228 229 0
-17 229 0
-229 228 17 0
-229 -230 0
229 230 0
-231 -221 0
-231 -227 0
221 227 231 0
-232 -217 0
-232 -221 0
-232 -225 0
217 221 225 232 0
-233 -214 0
-233 -217 0
-233 -221 0
-233 -223 0
214 217 221 223 233 0
-230 234 0
-231 234 0
-232 234 0
-233 234 0
-234 230 231 232 233 0
-235 -4 0
-235 20 0
4 -20 235 0
-236 4 0
-236 -20 0
-4 20 236 0
-235 237 0
-236 237 0
-237 235 236 0
-238 -237 0
-238 -214 0
-238 -217 0
-238 -221 0
237 214 217 221 238 0
-239 -234 0
-239 -238 0
234 238 239 0
-240 -234 0
-240 239 0
234 -239 240 0
-241 234 0
-241 -239 0
-234 239 241 0
-240 242 0
-241 242 0
-242 240 241 0
-169 -243 0
169 243 0
-243 244 0
-168 244 0
-244 243 168 0
-234 -245 0
234 245 0
-245 246 0
-239 246 0
-246 245 239 0
-246 -247 0
246 247 0
-248 -242 0
-248 -171 0
242 171 248 0
-249 -211 0
-249 -242 0
-249 -244 0
211 242 244 249 0
-250 -208 0
-250 -211 0
-250 -242 0
-250 -175 0
208 211 242 175 250 0
-247 251 0
-248 251 0
-249 251 0
-250 251 0
-251 247 248 249 250 0
-252 -176 0
-252 177 0
176 -177 252 0
-253 176 0
-253 -177 0
-176 177 253 0
-252 254 0
-253 254 0
-254 252 253 0
-255 -254 0
-255 -208 0
-255 -211 0
-255 -242 0
254 208 211 242 255 0
-256 -251 0
-256 -255 0
251 255 256 0
-257 -7 0
-257 23 0
7 -23 257 0
-258 7 0
-258 -23 0
-7 23 258 0
-257 259 0
-258 259 0
-259 257 258 0
-260 -6 0
-260 22 0
6 -22 260 0
-261 6 0
-261 -22 0
-6 22 261 0
-260 262 0
-261 262 0
-262 260 261 0
-263 -5 0
-263 21 0
5 -21 263 0
-264 5 0
-264 -21 0
-5 21 264 0
-263 265 0
-264 265 0
-265 263 264 0
-8 -266 0
8 266 0
-266 267 0
-24 267 0
-267 266 24 0
-7 -268 0
7 268 0
-268 269 0
-23 269 0
-269 268 23 0
-6 -270 0
6 270 0
-270 271 0
-22 271 0
-271 270 22 0
-5 -272 0
5 272 0
-272 273 0
-21 273 0
-273 272 21 0
-274 -174 0
-274 -259 0
-274 -262 0
-274 -265 0
174 259 262 265 274 0
-275 -11 0
-275 27 0
11 -27 275 0
-276 11 0
-276 -27 0
-11 27 276 0
-275 277 0
-276 277 0
-277 275 276 0
-278 -10 0
-278 26 0
10 -26 278 0
-279 10 0
-279 -26 0
-10 26 279 0
-278 280 0
-279 280 0
-280 278 279 0
-281 -9 0
-281 25 0
9 -25 281 0
-282 9 0
-282 -25 0
-9 25 282 0
-281 283 0
-282 283 0
-283 281 282 0
-12 -284 0
12 284 0
-284 285 0
-28 285 0
-285 284 28 0
-11 -286 0
11 286 0
-286 287 0
-27 287 0
-287 286 27 0
-10 -288 0
10 288 0
-288 289 0
-26 289 0
-289 288 26 0
-9 -290 0
9 290 0
-290 291 0
-25 291 0
-291 290 25 0
-292 -12 0
-292 28 0
12 -28 292 0
-293 12 0
-293 -28 0
-12 28 293 0
-292 294 0
-293 294 0
-294 292 293 0
-295 -294 0
-295 -277 0
-295 -280 0
-295 -283 0
294 277 280 283 295 0
-296 -14 0
-296 30 0
14 -30 296 0
-297 14 0
-297 -30 0
-14 30 297 0
-296 298 0
-297 298 0
-298 296 297 0
-299 -13 0
-299 29 0
13 -29 299 0
-300 13 0
-300 -29 0
-13 29 300 0
-299 301 0
-300 301 0
-301 299 300 0
-16 -302 0
16 302 0
-302 303 0
-32 303 0
-303 302 32 0
-15 -304 0
15 304 0
-304 305 0
-31 305 0
-305 304 31 0
-14 -306 0
14 306 0
-306 307 0
-30 307 0
-307 306 30 0
-13 -308 0
13 308 0
-308 309 0
-29 309 0
-309 308 29 0
-310 -16 0
-310 32 0
16 -32 310 0
-311 16 0
-311 -32 0
-16 32 311 0
-310 312 0
-311 312 0
-312 310 311 0
-313 -312 0
-313 -170 0
-313 -298 0
-313 -301 0
312 170 298 301 313 0
-314 -167 256 0
-314 167 -256 0
314 -167 -256 0
314 167 256 0
-315 -166 255 0
-315 166 -255 0
315 -166 -255 0
315 166 255 0
-316 -162 251 0
-316 162 -251 0
316 -162 -251 0
316 162 251 0
-314 -315 -316 317 0
-317 314 0
-317 315 0
-317 316 0
-8 -178 -318 0
-8 178 318 0
8 -178 318 0
8 178 -318 0
-24 -179 -319 0
-24 179 319 0
24 -179 319 0
24 179 -319 0
-15 -180 -320 0
-15 180 320 0
15 -180 320 0
15 180 -320 0
-31 -181 -321 0
-31 181 321 0
31 -181 321 0
31 181 -321 0
-259 -182 -322 0
-259 182 322 0
259 -182 322 0
259 182 -322 0
-262 -183 -323 0
-262 183 323 0
262 -183 323 0
262 183 -323 0
-265 -184 -324 0
-265 184 324 0
265 -184 324 0
265 184 -324 0
-267 -185 -325 0
-267 185 325 0
267 -185 325 0
267 185 -325 0
-269 -186 -326 0
-269 186 326 0
269 -186 326 0
269 186 -326 0
-271 -187 -327 0
-271 187 327 0
271 -187 327 0
271 187 -327 0
-273 -188 -328 0
-273 188 328 0
273 -188 328 0
273 188 -328 0
-274 -189 -329 0
-274 189 329 0
274 -189 329 0
274 189 -329 0
-277 -190 -330 0
-277 190 330 0
277 -190 330 0
277 190 -330 0
-280 -191 -331 0
-280 191 331 0
280 -191 331 0
280 191 -331 0
-283 -192 -332 0
-283 192 332 0
283 -192 332 0
283 192 -332 0
-285 -193 -333 0
-285 193 333 0
285 -193 333 0
285 193 -333 0
-287 -194 -334 0
-287 194 334 0
287 -194 334 0
287 194 -334 0
-289 -195 -335 0
-289 195 335 0
289 -195 335 0
289 195 -335 0
-291 -196 -336 0
-291 196 336 0
291 -196 336 0
291 196 -336 0
-295 -197 -337 0
-295 197 337 0
295 -197 337 0
295 197 -337 0
-170 -198 -338 0
-170 198 338 0
170 -198 338 0
170 198 -338 0
-298 -199 -339 0
-298 199 339 0
298 -199 339 0
298 199 -339 0
-301 -200 -340 0
-301 200 340 0
301 -200 340 0
301 200 -340 0
-303 -201 -341 0
-303 201 341 0
303 -201 341 0
303 201 -341 0
-305 -202 -342 0
-305 202 342 0
305 -202 342 0
305 202 -342 0
-307 -203 -343 0
-307 203 343 0
307 -203 343 0
307 203 -343 0
-309 -204 -344 0
-309 204 344 0
309 -204 344 0
309 204 -344 0
-313 -205 -345 0
-313 205 345 0
313 -205 345 0
313 205 -345 0
318 319 320 321 322 323 324 325 326 327 328 329 330 331 332 333 334 335 336 337 338 339 340 341 342 343 344 345 317 0
-11 -1214 0
27 -1214 0
11 -27 1214 0
11 -1215 0
-27 -1215 0
-11 27 1215 0
-33 -1216 0
-34 -1216 0
33 34 1216 0
-10 -1217 0
26 -1217 0
10 -26 1217 0
10 -1218 0
-26 -1218 0
-10 26 1218 0
-36 -1219 0
-37 -1219 0
36 37 1219 0
-9 -1220 0
25 -1220 0
9 -25 1220 0
9 -1221 0
-25 -1221 0
-9 25 1221 0
-39 -1222 0
-40 -1222 0
39 40 1222 0
-28 -1223 0
-42 -1223 0
28 42 1223 0
-27 -1224 0
-44 -1224 0
27 44 1224 0
-26 -1225 0
-46 -1225 0
26 46 1225 0
-25 -1226 0
-48 -1226 0
25 48 1226 0
-41 -1227 0
-47 -1227 0
41 47 1227 0
-38 -1228 0
-41 -1228 0
38 41 1228 0
-45 -1229 0
1228 -1229 0
45 -1228 1229 0
-35 -1230 0
1228 -1230 0
35 -1228 1230 0
-43 -1231 0
1230 -1231 0
43 -1230 1231 0
-50 -1232 0
-51 -1232 0
50 51 1232 0
-52 -1233 0
-53 -1233 0
52 53 1233 0
1232 -1234 0
1233 -1234 0
-1232 -1233 1234 0
-12 -1235 0
28 -1235 0
12 -28 1235 0
12 -1236 0
-28 -1236 0
-12 28 1236 0
-55 -1237 0
-56 -1237 0
55 56 1237 0
-57 -1238 0
1230 -1238 0
57 -1230 1238 0
-54 -1239 0
-58 -1239 0
54 58 1239 0
-54 -1240 0
59 -1240 0
54 -59 1240 0
54 -1241 0
-59 -1241 0
-54 59 1241 0
-60 -1242 0
-61 -1242 0
60 61 1242 0
-7 -1243 0
23 -1243 0
7 -23 1243 0
7 -1244 0
-23 -1244 0
-7 23 1244 0
-63 -1245 0
-64 -1245 0
63 64 1245 0
-6 -1246 0
22 -1246 0
6 -22 1246 0
6 -1247 0
-22 -1247 0
-6 22 1247 0
-66 -1248 0
-67 -1248 0
66 67 1248 0
-5 -1249 0
21 -1249 0
5 -21 1249 0
5 -1250 0
-21 -1250 0
-5 21 1250 0
-69 -1251 0
-70 -1251 0
69 70 1251 0
-24 -1252 0
-72 -1252 0
24 72 1252 0
-23 -1253 0
-74 -1253 0
23 74 1253 0
-22 -1254 0
-76 -1254 0
22 76 1254 0
-21 -1255 0
-78 -1255 0
21 78 1255 0
-71 -1256 0
-77 -1256 0
71 77 1256 0
-68 -1257 0
-71 -1257 0
68 71 1257 0
-75 -1258 0
1257 -1258 0
75 -1257 1258 0
-65 -1259 0
1257 -1259 0
65 -1257 1259 0
-73 -1260 0
1259 -1260 0
73 -1259 1260 0
-80 -1261 0
-81 -1261 0
80 81 1261 0
-82 -1262 0
-83 -1262 0
82 83 1262 0
1261 -1263 0
1262 -1263 0
-1261 -1262 1263 0
-8 -1264 0
24 -1264 0
8 -24 1264 0
8 -1265 0
-24 -1265 0
-8 24 1265 0
-85 -1266 0
-86 -1266 0
85 86 1266 0
-87 -1267 0
1259 -1267 0
87 -1259 1267 0
-84 -1268 0
-88 -1268 0
84 88 1268 0
-84 -1269 0
89 -1269 0
84 -89 1269 0
84 -1270 0
-89 -1270 0
-84 89 1270 0
-90 -1271 0
-91 -1271 0
90 91 1271 0
-3 -1272 0
19 -1272 0
3 -19 1272 0
3 -1273 0
-19 -1273 0
-3 19 1273 0
-93 -1274 0
-94 -1274 0
93 94 1274 0
-2 -1275 0
18 -1275 0
2 -18 1275 0
2 -1276 0
-18 -1276 0
-2 18 1276 0
-96 -1277 0
-97 -1277 0
96 97 1277 0
-1 -1278 0
17 -1278 0
1 -17 1278 0
1 -1279 0
-17 -1279 0
-1 17 1279 0
-99 -1280 0
-100 -1280 0
99 100 1280 0
-20 -1281 0
-102 -1281 0
20 102 1281 0
-19 -1282 0
-104 -1282 0
19 104 1282 0
-18 -1283 0
-106 -1283 0
18 106 1283 0
-17 -1284 0
-108 -1284 0
17 108 1284 0
-101 -1285 0
-107 -1285 0
101 107 1285 0
-98 -1286 0
-101 -1286 0
98 101 1286 0
-105 -1287 0
1286 -1287 0
105 -1286 1287 0
-95 -1288 0
1286 -1288 0
95 -1286 1288 0
-103 -1289 0
1288 -1289 0
103 -1288 1289 0
-110 -1290 0
-111 -1290 0
110 111 1290 0
-112 -1291 0
-113 -1291 0
112 113 1291 0
1290 -1292 0
1291 -1292 0
-1290 -1291 1292 0
-4 -1293 0
20 -1293 0
4 -20 1293 0
4 -1294 0
-20 -1294 0
-4 20 1294 0
-115 -1295 0
-116 -1295 0
115 116 1295 0
-117 -1296 0
1288 -1296 0
117 -1288 1296 0
-114 -1297 0
-118 -1297 0
114 118 1297 0
-114 -1298 0
119 -1298 0
114 -119 1298 0
114 -1299 0
-119 -1299 0
-114 119 1299 0
-120 -1300 0
-121 -1300 0
120 121 1300 0
-15 -1301 0
31 -1301 0
15 -31 1301 0
15 -1302 0
-31 -1302 0
-15 31 1302 0
-123 -1303 0
-124 -1303 0
123 124 1303 0
-14 -1304 0
30 -1304 0
14 -30 1304 0
14 -1305 0
-30 -1305 0
-14 30 1305 0
-126 -1306 0
-127 -1306 0
126 127 1306 0
-13 -1307 0
29 -1307 0
13 -29 1307 0
13 -1308 0
-29 -1308 0
-13 29 1308 0
-129 -1309 0
-130 -1309 0
129 130 1309 0
-32 -1310 0
-132 -1310 0
32 132 1310 0
-31 -1311 0
-134 -1311 0
31 134 1311 0
-30 -1312 0
-136 -1312 0
30 136 1312 0
-29 -1313 0
-138 -1313 0
29 138 1313 0
-131 -1314 0
-137 -1314 0
131 137 1314 0
-128 -1315 0
-131 -1315 0
128 131 1315 0
-135 -1316 0
1315 -1316 0
135 -1315 1316 0
-125 -1317 0
1315 -1317 0
125 -1315 1317 0
-133 -1318 0
1317 -1318 0
133 -1317 1318 0
-140 -1319 0
-141 -1319 0
140 141 1319 0
-142 -1320 0
-143 -1320 0
142 143 1320 0
1319 -1321 0
1320 -1321 0
-1319 -1320 1321 0
-16 -1322 0
32 -1322 0
16 -32 1322 0
16 -1323 0
-32 -1323 0
-16 32 1323 0
-145 -1324 0
-146 -1324 0
145 146 1324 0
-147 -1325 0
1317 -1325 0
147 -1317 1325 0
-144 -1326 0
-148 -1326 0
144 148 1326 0
-149 -1327 0
-150 -1327 0
149 150 1327 0
-59 -1328 0
-152 -1328 0
59 152 1328 0
-89 -1329 0
-154 -1329 0
89 154 1329 0
-119 -1330 0
-156 -1330 0
119 156 1330 0
-122 -1331 0
-155 -1331 0
122 155 1331 0
-92 -1332 0
-122 -1332 0
92 122 1332 0
-153 -1333 0
1332 -1333 0
153 -1332 1333 0
-62 -1334 0
1332 -1334 0
62 -1332 1334 0
-151 -1335 0
1334 -1335 0
151 -1334 1335 0
-158 -1336 0
-159 -1336 0
158 159 1336 0
-160 -1337 0
-161 -1337 0
160 161 1337 0
1336 -1338 0
1337 -1338 0
-1336 -1337 1338 0
-144 -1339 0
149 -1339 0
144 -149 1339 0
144 -1340 0
-149 -1340 0
-144 149 1340 0
-163 -1341 0
-164 -1341 0
163 164 1341 0
-165 -1342 0
1334 -1342 0
165 -1334 1342 0
-162 -1343 0
-166 -1343 0
162 166 1343 0
-206 -1344 0
-207 -1344 0
206 207 1344 0
-209 -1345 0
-210 -1345 0
209 210 1345 0
-212 -1346 0
-213 -1346 0
212 213 1346 0
-215 -1347 0
-216 -1347 0
215 216 1347 0
-219 -1348 0
-220 -1348 0
219 220 1348 0
-20 -1349 0
-222 -1349 0
20 222 1349 0
-19 -1350 0
-224 -1350 0
19 224 1350 0
-18 -1351 0
-226 -1351 0
18 226 1351 0
-17 -1352 0
-228 -1352 0
17 228 1352 0
-221 -1353 0
-227 -1353 0
221 227 1353 0
-217 -1354 0
-221 -1354 0
217 221 1354 0
-225 -1355 0
1354 -1355 0
225 -1354 1355 0
-214 -1356 0
1354 -1356 0
214 -1354 1356 0
-223 -1357 0
1356 -1357 0
223 -1356 1357 0
-230 -1358 0
-231 -1358 0
230 231 1358 0
-232 -1359 0
-233 -1359 0
232 233 1359 0
1358 -1360 0
1359 -1360 0
-1358 -1359 1360 0
-235 -1361 0
-236 -1361 0
235 236 1361 0
-237 -1362 0
1356 -1362 0
237 -1356 1362 0
-234 -1363 0
-238 -1363 0
234 238 1363 0
-234 -1364 0
239 -1364 0
234 -239 1364 0
234 -1365 0
-239 -1365 0
-234 239 1365 0
-240 -1366 0
-241 -1366 0
240 241 1366 0
207 -1367 0
-243 -1367 0
-207 243 1367 0
-239 -1368 0
-245 -1368 0
239 245 1368 0
-211 -1369 0
-242 -1369 0
211 242 1369 0
-244 -1370 0
1369 -1370 0
244 -1369 1370 0
-247 -1371 0
-248 -1371 0
247 248 1371 0
-249 -1372 0
-250 -1372 0
249 250 1372 0
1371 -1373 0
1372 -1373 0
-1371 -1372 1373 0
-252 -1374 0
-253 -1374 0
252 253 1374 0
-208 -1375 0
-254 -1375 0
208 254 1375 0
1369 -1376 0
1375 -1376 0
-1369 -1375 1376 0
-251 -1377 0
-255 -1377 0
251 255 1377 0
-257 -1378 0
-258 -1378 0
257 258 1378 0
-260 -1379 0
-261 -1379 0
260 261 1379 0
-263 -1380 0
-264 -1380 0
263 264 1380 0
-24 -1381 0
-266 -1381 0
24 266 1381 0
-23 -1382 0
-268 -1382 0
23 268 1382 0
-22 -1383 0
-270 -1383 0
22 270 1383 0
-21 -1384 0
-272 -1384 0
21 272 1384 0
-275 -1385 0
-276 -1385 0
275 276 1385 0
-278 -1386 0
-279 -1386 0
278 279 1386 0
-281 -1387 0
-282 -1387 0
281 282 1387 0
-28 -1388 0
-284 -1388 0
28 284 1388 0
-27 -1389 0
-286 -1389 0
27 286 1389 0
-26 -1390 0
-288 -1390 0
26 288 1390 0
-25 -1391 0
-290 -1391 0
25 290 1391 0
-292 -1392 0
-293 -1392 0
292 293 1392 0
-277 -1393 0
-280 -1393 0
277 280 1393 0
-283 -1394 0
-294 -1394 0
283 294 1394 0
1393 -1395 0
1394 -1395 0
-1393 -1394 1395 0
-296 -1396 0
-297 -1396 0
296 297 1396 0
-299 -1397 0
-300 -1397 0
299 300 1397 0
-32 -1398 0
-302 -1398 0
32 302 1398 0
-31 -1399 0
-304 -1399 0
31 304 1399 0
-30 -1400 0
-306 -1400 0
30 306 1400 0
-29 -1401 0
-308 -1401 0
29 308 1401 0
-310 -1402 0
-311 -1402 0
310 311 1402 0
167 -1403 0
-256 -1403 0
-167 256 1403 0
-167 -1404 0
256 -1404 0
167 -256 1404 0
-1403 -1405 0
-1404 -1405 0
1403 1404 1405 0
166 -1406 0
-255 -1406 0
-166 255 1406 0
-166 -1407 0
255 -1407 0
166 -255 1407 0
-1406 -1408 0
-1407 -1408 0
1406 1407 1408 0
162 -1409 0
-251 -1409 0
-162 251 1409 0
-162 -1410 0
251 -1410 0
162 -251 1410 0
-1409 -1411 0
-1410 -1411 0
1409 1410 1411 0
314 -1412 0
315 -1412 0
-314 -315 1412 0
316 -1413 0
1412 -1413 0
-316 -1412 1413 0
-8 -1414 0
-178 -1414 0
8 178 1414 0
8 -1415 0
178 -1415 0
-8 -178 1415 0
-1414 -1416 0
-1415 -1416 0
1414 1415 1416 0
-24 -1417 0
-179 -1417 0
24 179 1417 0
24 -1418 0
179 -1418 0
-24 -179 1418 0
-1417 -1419 0
-1418 -1419 0
1417 1418 1419 0
-15 -1420 0
-180 -1420 0
15 180 1420 0
15 -1421 0
180 -1421 0
-15 -180 1421 0
-1420 -1422 0
-1421 -1422 0
1420 1421 1422 0
-31 -1423 0
-181 -1423 0
31 181 1423 0
31 -1424 0
181 -1424 0
-31 -181 1424 0
-1423 -1425 0
-1424 -1425 0
1423 1424 1425 0
-257 -1426 0
-1244 -1426 0
257 1244 1426 0
259 -1427 0
-1426 -1427 0
-259 1426 1427 0
-182 -1428 0
-1427 -1428 0
182 1427 1428 0
-259 -1429 0
-1244 -1429 0
259 1244 1429 0
182 -1430 0
-1429 -1430 0
-182 1429 1430 0
-23 -1431 0
257 -1431 0
23 -257 1431 0
-1430 -1432 0
-1431 -1432 0
1430 1431 1432 0
-1428 -1433 0
1432 -1433 0
1428 -1432 1433 0
-260 -1434 0
-1247 -1434 0
260 1247 1434 0
262 -1435 0
-1434 -1435 0
-262 1434 1435 0
-183 -1436 0
-1435 -1436 0
183 1435 1436 0
-262 -1437 0
-1247 -1437 0
262 1247 1437 0
183 -1438 0
-1437 -1438 0
-183 1437 1438 0
-22 -1439 0
260 -1439 0
22 -260 1439 0
-1438 -1440 0
-1439 -1440 0
1438 1439 1440 0
-1436 -1441 0
1440 -1441 0
1436 -1440 1441 0
-263 -1442 0
-1250 -1442 0
263 1250 1442 0
265 -1443 0
-1442 -1443 0
-265 1442 1443 0
-184 -1444 0
-1443 -1444 0
184 1443 1444 0
-265 -1445 0
-1250 -1445 0
265 1250 1445 0
184 -1446 0
-1445 -1446 0
-184 1445 1446 0
-21 -1447 0
263 -1447 0
21 -263 1447 0
-1446 -1448 0
-1447 -1448 0
1446 1447 1448 0
-1444 -1449 0
1448 -1449 0
1444 -1448 1449 0
-185 -1450 0
-267 -1450 0
185 267 1450 0
185 -1451 0
267 -1451 0
-185 -267 1451 0
-1450 -1452 0
-1451 -1452 0
1450 1451 1452 0
-186 -1453 0
-1244 -1453 0
186 1244 1453 0
186 -1454 0
1244 -1454 0
-186 -1244 1454 0
-1453 -1455 0
-1454 -1455 0
1453 1454 1455 0
-187 -1456 0
-1247 -1456 0
187 1247 1456 0
187 -1457 0
1247 -1457 0
-187 -1247 1457 0
-1456 -1458 0
-1457 -1458 0
1456 1457 1458 0
-188 -1459 0
-1250 -1459 0
188 1250 1459 0
188 -1460 0
1250 -1460 0
-188 -1250 1460 0
-1459 -1461 0
-1460 -1461 0
1459 1460 1461 0
-189 -1462 0
-274 -1462 0
189 274 1462 0
189 -1463 0
274 -1463 0
-189 -274 1463 0
-1462 -1464 0
-1463 -1464 0
1462 1463 1464 0
-190 -1465 0
277 -1465 0
190 -277 1465 0
27 -1466 0
33 -1466 0
-27 -33 1466 0
-1215 -1467 0
-1466 -1467 0
1215 1466 1467 0
-1465 -1468 0
-1467 -1468 0
1465 1467 1468 0
190 -1469 0
-277 -1469 0
-190 277 1469 0
-1214 -1470 0
-1215 -1470 0
1214 1215 1470 0
-1469 -1471 0
1470 -1471 0
1469 -1470 1471 0
-1468 -1472 0
-1471 -1472 0
1468 1471 1472 0
-278 -1473 0
-1218 -1473 0
278 1218 1473 0
280 -1474 0
-1473 -1474 0
-280 1473 1474 0
-191 -1475 0
-1474 -1475 0
191 1474 1475 0
-280 -1476 0
-1218 -1476 0
280 1218 1476 0
191 -1477 0
-1476 -1477 0
-191 1476 1477 0
-26 -1478 0
278 -1478 0
26 -278 1478 0
-1477 -1479 0
-1478 -1479 0
1477 1478 1479 0
-1475 -1480 0
1479 -1480 0
1475 -1479 1480 0
-192 -1481 0
-283 -1481 0
192 283 1481 0
192 -1482 0
283 -1482 0
-192 -283 1482 0
-1481 -1483 0
-1482 -1483 0
1481 1482 1483 0
-193 -1484 0
-285 -1484 0
193 285 1484 0
193 -1485 0
285 -1485 0
-193 -285 1485 0
-1484 -1486 0
-1485 -1486 0
1484 1485 1486 0
-27 -1487 0
194 -1487 0
27 -194 1487 0
-287 -1488 0
1487 -1488 0
287 -1487 1488 0
-194 -1489 0
287 -1489 0
194 -287 1489 0
-1488 -1490 0
-1489 -1490 0
1488 1489 1490 0
-195 -1491 0
-1218 -1491 0
195 1218 1491 0
195 -1492 0
1218 -1492 0
-195 -1218 1492 0
-1491 -1493 0
-1492 -1493 0
1491 1492 1493 0
-196 -1494 0
-1221 -1494 0
196 1221 1494 0
196 -1495 0
1221 -1495 0
-196 -1221 1495 0
-1494 -1496 0
-1495 -1496 0
1494 1495 1496 0
-197 -1497 0
-295 -1497 0
197 295 1497 0
197 -1498 0
295 -1498 0
-197 -295 1498 0
-1497 -1499 0
-1498 -1499 0
1497 1498 1499 0
-199 -1500 0
-298 -1500 0
199 298 1500 0
199 -1501 0
298 -1501 0
-199 -298 1501 0
-1500 -1502 0
-1501 -1502 0
1500 1501 1502 0
-200 -1503 0
-301 -1503 0
200 301 1503 0
200 -1504 0
301 -1504 0
-200 -301 1504 0
-1503 -1505 0
-1504 -1505 0
1503 1504 1505 0
-201 -1506 0
303 -1506 0
201 -303 1506 0
-1323 -1507 0
-1506 -1507 0
1323 1506 1507 0
201 -1508 0
-303 -1508 0
-201 303 1508 0
1323 -1509 0
-1508 -1509 0
-1323 1508 1509 0
-1507 -1510 0
-1509 -1510 0
1507 1509 1510 0
-202 -1511 0
-305 -1511 0
202 305 1511 0
202 -1512 0
305 -1512 0
-202 -305 1512 0
-1511 -1513 0
-1512 -1513 0
1511 1512 1513 0
-203 -1514 0
307 -1514 0
203 -307 1514 0
-1305 -1515 0
-1514 -1515 0
1305 1514 1515 0
203 -1516 0
-307 -1516 0
-203 307 1516 0
1305 -1517 0
-1516 -1517 0
-1305 1516 1517 0
-1515 -1518 0
-1517 -1518 0
1515 1517 1518 0
-204 -1519 0
309 -1519 0
204 -309 1519 0
-1308 -1520 0
-1519 -1520 0
1308 1519 1520 0
204 -1521 0
-309 -1521 0
-204 309 1521 0
1308 -1522 0
-1521 -1522 0
-1308 1521 1522 0
-1520 -1523 0
-1522 -1523 0
1520 1522 1523 0
-205 -1524 0
-313 -1524 0
205 313 1524 0
205 -1525 0
313 -1525 0
-205 -313 1525 0
-1524 -1526 0
-1525 -1526 0
1524 1525 1526 0
